--- Job new1.gms Start 11/24/19 14:10:11 29.1.0 rbb4180b WEX-WEI x86 64bit/MS Windows
--- GAMS Parameters defined
    Input Z:\computer\programming\GAMSStudio\workspace\new1.gms
    PageSize 0
    ScrDir Z:\computer\programming\GAMSStudio\workspace\225a\
    SysDir C:\GAMS\win64\29.1\
    LogOption 3
    ErrMsg 1
    ErrorLog 99
    IDE 1
    LstTitleLeftAligned 1
GAMS 29.1.0   Copyright (C) 1987-2019 GAMS Development. All rights reserved
Licensee: GAMS Development Corporation, USA              G871201/0000CA-ANY
          Free Demo, +1 202-342-0180, support@gams.com, www.gams.com DC0000
--- Starting compilation
--- new1.gms(42) 3 Mb
--- Starting execution: elapsed 0:00:00.030
--- new1.gms(19) 4 Mb
--- Generating LP model transport
--- new1.gms(42) 4 Mb
---   6 rows  7 columns  19 non-zeroes
--- Executing CPLEX: elapsed 0:00:00.158
IBM ILOG CPLEX   29.1.0 rbb4180b Released Nov 15, 2019 WEI x86 64bit/MS Window
Cplex 12.9.0.0
Reading data...
Starting Cplex...
Space for names approximately 0.00 Mb
Use option 'names no' to turn use of names off
CPXPARAM_Advance                                 0
CPXPARAM_Simplex_Display                         2
CPXPARAM_Threads                                 1
CPXPARAM_Parallel                                1
CPXPARAM_Simplex_Limits_Iterations               2000000000
CPXPARAM_TimeLimit                               1000
CPXPARAM_Tune_TimeLimit                          200
Tried aggregator 1 time.
LP Presolve eliminated 1 rows and 1 columns.
Reduced LP has 5 rows, 6 columns, and 12 nonzeros.
Presolve time = 0.00 sec. (0.00 ticks)
Iteration      Dual Objective            In Variable           Out Variable
     1              73.125000    x(Seattle.New-York) demand(New-York) slack
     2             119.025000     x(Seattle.Chicago)  demand(Chicago) slack
     3             153.675000    x(San-Diego.Topeka)   demand(Topeka) slack
     4             153.675000  x(San-Diego.New-York)  supply(Seattle) slack
LP status(1): optimal
Cplex Time: 0.02sec (det. 0.01 ticks)
Optimal solution found.
Objective :         153.675000
--- Restarting execution
--- new1.gms(42) 2 Mb
--- Reading solution for model transport
*** Status: Normal completion
--- Job new1.gms Stop 11/24/19 14:10:12 elapsed 0:00:00.726

